p edges 100 2502
e 0 2
e 0 9
e 0 11
e 0 15
e 0 16
e 0 17
e 0 18
e 0 20
e 0 22
e 0 23
e 0 26
e 0 30
e 0 31
e 0 32
e 0 35
e 0 39
e 0 40
e 0 41
e 0 43
e 0 44
e 0 45
e 0 47
e 0 51
e 0 55
e 0 56
e 0 57
e 0 58
e 0 59
e 0 60
e 0 63
e 0 65
e 0 67
e 0 68
e 0 69
e 0 70
e 0 73
e 0 76
e 0 77
e 0 78
e 0 79
e 0 82
e 0 83
e 0 85
e 0 86
e 0 89
e 0 92
e 0 94
e 0 96
e 1 3
e 1 4
e 1 5
e 1 6
e 1 8
e 1 11
e 1 12
e 1 14
e 1 15
e 1 17
e 1 22
e 1 24
e 1 25
e 1 28
e 1 30
e 1 33
e 1 34
e 1 35
e 1 36
e 1 37
e 1 39
e 1 43
e 1 44
e 1 45
e 1 53
e 1 62
e 1 64
e 1 67
e 1 68
e 1 71
e 1 74
e 1 76
e 1 78
e 1 80
e 1 81
e 1 83
e 1 84
e 1 85
e 1 89
e 1 95
e 1 97
e 2 4
e 2 5
e 2 6
e 2 7
e 2 8
e 2 13
e 2 15
e 2 18
e 2 19
e 2 20
e 2 24
e 2 26
e 2 27
e 2 28
e 2 29
e 2 31
e 2 34
e 2 38
e 2 40
e 2 46
e 2 47
e 2 48
e 2 49
e 2 50
e 2 52
e 2 53
e 2 55
e 2 58
e 2 59
e 2 63
e 2 67
e 2 71
e 2 72
e 2 73
e 2 74
e 2 75
e 2 77
e 2 78
e 2 83
e 2 84
e 2 89
e 2 91
e 2 92
e 2 97
e 2 98
e 3 4
e 3 5
e 3 6
e 3 8
e 3 9
e 3 11
e 3 12
e 3 15
e 3 18
e 3 21
e 3 23
e 3 25
e 3 26
e 3 27
e 3 28
e 3 29
e 3 30
e 3 31
e 3 33
e 3 39
e 3 40
e 3 41
e 3 44
e 3 46
e 3 50
e 3 52
e 3 53
e 3 54
e 3 55
e 3 56
e 3 58
e 3 60
e 3 61
e 3 64
e 3 65
e 3 66
e 3 69
e 3 70
e 3 71
e 3 72
e 3 73
e 3 74
e 3 78
e 3 79
e 3 80
e 3 81
e 3 82
e 3 84
e 3 87
e 3 88
e 3 89
e 3 90
e 3 91
e 3 92
e 3 94
e 4 7
e 4 8
e 4 10
e 4 11
e 4 12
e 4 13
e 4 15
e 4 16
e 4 18
e 4 19
e 4 23
e 4 26
e 4 27
e 4 28
e 4 30
e 4 31
e 4 32
e 4 33
e 4 34
e 4 35
e 4 36
e 4 39
e 4 41
e 4 42
e 4 43
e 4 44
e 4 45
e 4 46
e 4 48
e 4 49
e 4 51
e 4 52
e 4 54
e 4 57
e 4 58
e 4 59
e 4 62
e 4 63
e 4 65
e 4 66
e 4 68
e 4 69
e 4 71
e 4 74
e 4 75
e 4 77
e 4 79
e 4 80
e 4 83
e 4 86
e 4 87
e 4 88
e 4 90
e 4 93
e 4 95
e 4 96
e 4 97
e 4 99
e 5 11
e 5 12
e 5 13
e 5 15
e 5 16
e 5 17
e 5 20
e 5 21
e 5 26
e 5 27
e 5 29
e 5 31
e 5 33
e 5 34
e 5 35
e 5 36
e 5 38
e 5 40
e 5 41
e 5 42
e 5 43
e 5 45
e 5 46
e 5 48
e 5 54
e 5 59
e 5 60
e 5 61
e 5 64
e 5 68
e 5 71
e 5 72
e 5 73
e 5 74
e 5 75
e 5 77
e 5 81
e 5 82
e 5 83
e 5 86
e 5 87
e 5 89
e 5 90
e 5 92
e 5 93
e 5 94
e 5 96
e 5 97
e 5 98
e 6 7
e 6 8
e 6 9
e 6 12
e 6 16
e 6 17
e 6 18
e 6 20
e 6 24
e 6 25
e 6 29
e 6 34
e 6 41
e 6 42
e 6 43
e 6 44
e 6 47
e 6 48
e 6 49
e 6 50
e 6 52
e 6 53
e 6 55
e 6 56
e 6 57
e 6 58
e 6 60
e 6 68
e 6 70
e 6 71
e 6 72
e 6 75
e 6 77
e 6 78
e 6 79
e 6 83
e 6 85
e 6 86
e 6 87
e 6 89
e 6 91
e 6 92
e 6 94
e 6 97
e 6 99
e 7 8
e 7 11
e 7 19
e 7 20
e 7 24
e 7 26
e 7 30
e 7 31
e 7 33
e 7 35
e 7 36
e 7 40
e 7 44
e 7 46
e 7 48
e 7 50
e 7 52
e 7 54
e 7 57
e 7 58
e 7 61
e 7 62
e 7 63
e 7 64
e 7 65
e 7 67
e 7 69
e 7 72
e 7 74
e 7 77
e 7 82
e 7 87
e 7 89
e 7 91
e 7 92
e 7 94
e 7 96
e 7 98
e 7 99
e 8 9
e 8 10
e 8 11
e 8 12
e 8 14
e 8 16
e 8 20
e 8 21
e 8 23
e 8 29
e 8 30
e 8 31
e 8 32
e 8 34
e 8 35
e 8 37
e 8 42
e 8 43
e 8 45
e 8 47
e 8 48
e 8 49
e 8 50
e 8 52
e 8 53
e 8 55
e 8 56
e 8 57
e 8 58
e 8 59
e 8 63
e 8 64
e 8 65
e 8 68
e 8 73
e 8 74
e 8 78
e 8 79
e 8 81
e 8 84
e 8 86
e 8 88
e 8 89
e 8 90
e 8 95
e 8 97
e 9 10
e 9 11
e 9 12
e 9 15
e 9 16
e 9 17
e 9 18
e 9 19
e 9 20
e 9 22
e 9 26
e 9 27
e 9 28
e 9 29
e 9 30
e 9 32
e 9 34
e 9 36
e 9 38
e 9 40
e 9 42
e 9 43
e 9 44
e 9 46
e 9 47
e 9 49
e 9 50
e 9 51
e 9 53
e 9 54
e 9 59
e 9 60
e 9 61
e 9 62
e 9 63
e 9 68
e 9 69
e 9 71
e 9 74
e 9 75
e 9 76
e 9 77
e 9 78
e 9 80
e 9 81
e 9 83
e 9 85
e 9 86
e 9 89
e 9 91
e 9 92
e 9 93
e 9 95
e 9 99
e 10 11
e 10 12
e 10 14
e 10 15
e 10 16
e 10 18
e 10 20
e 10 21
e 10 22
e 10 25
e 10 26
e 10 27
e 10 30
e 10 31
e 10 32
e 10 36
e 10 39
e 10 40
e 10 45
e 10 46
e 10 49
e 10 50
e 10 51
e 10 53
e 10 54
e 10 57
e 10 59
e 10 63
e 10 64
e 10 65
e 10 67
e 10 71
e 10 73
e 10 75
e 10 77
e 10 78
e 10 81
e 10 82
e 10 84
e 10 85
e 10 89
e 10 94
e 10 97
e 10 98
e 11 14
e 11 15
e 11 16
e 11 18
e 11 19
e 11 20
e 11 22
e 11 23
e 11 24
e 11 25
e 11 29
e 11 37
e 11 38
e 11 39
e 11 40
e 11 41
e 11 42
e 11 46
e 11 47
e 11 48
e 11 49
e 11 50
e 11 52
e 11 53
e 11 54
e 11 55
e 11 56
e 11 59
e 11 60
e 11 62
e 11 65
e 11 66
e 11 68
e 11 69
e 11 71
e 11 73
e 11 74
e 11 76
e 11 77
e 11 79
e 11 80
e 11 82
e 11 89
e 11 92
e 11 96
e 11 97
e 11 98
e 12 16
e 12 19
e 12 21
e 12 24
e 12 25
e 12 27
e 12 28
e 12 32
e 12 33
e 12 35
e 12 36
e 12 39
e 12 40
e 12 42
e 12 43
e 12 44
e 12 46
e 12 50
e 12 51
e 12 53
e 12 54
e 12 56
e 12 58
e 12 59
e 12 60
e 12 61
e 12 62
e 12 63
e 12 64
e 12 66
e 12 67
e 12 68
e 12 69
e 12 70
e 12 71
e 12 72
e 12 74
e 12 75
e 12 76
e 12 79
e 12 80
e 12 81
e 12 83
e 12 84
e 12 86
e 12 91
e 12 93
e 12 95
e 12 96
e 12 97
e 12 98
e 12 99
e 13 15
e 13 16
e 13 20
e 13 21
e 13 22
e 13 27
e 13 28
e 13 29
e 13 34
e 13 35
e 13 36
e 13 37
e 13 39
e 13 40
e 13 43
e 13 44
e 13 47
e 13 49
e 13 50
e 13 51
e 13 52
e 13 61
e 13 62
e 13 63
e 13 64
e 13 65
e 13 68
e 13 71
e 13 72
e 13 73
e 13 76
e 13 77
e 13 78
e 13 79
e 13 80
e 13 81
e 13 83
e 13 84
e 13 86
e 13 88
e 13 90
e 13 91
e 13 96
e 13 98
e 14 15
e 14 16
e 14 17
e 14 18
e 14 19
e 14 22
e 14 24
e 14 27
e 14 29
e 14 32
e 14 34
e 14 35
e 14 38
e 14 39
e 14 40
e 14 44
e 14 46
e 14 49
e 14 51
e 14 56
e 14 57
e 14 58
e 14 59
e 14 60
e 14 63
e 14 64
e 14 65
e 14 66
e 14 68
e 14 71
e 14 72
e 14 73
e 14 74
e 14 75
e 14 76
e 14 77
e 14 80
e 14 82
e 14 85
e 14 86
e 14 87
e 14 88
e 14 91
e 14 92
e 14 98
e 15 18
e 15 21
e 15 22
e 15 25
e 15 27
e 15 28
e 15 29
e 15 30
e 15 31
e 15 33
e 15 34
e 15 36
e 15 37
e 15 39
e 15 41
e 15 43
e 15 46
e 15 47
e 15 49
e 15 50
e 15 52
e 15 53
e 15 54
e 15 56
e 15 57
e 15 58
e 15 63
e 15 64
e 15 65
e 15 67
e 15 71
e 15 72
e 15 73
e 15 76
e 15 78
e 15 83
e 15 84
e 15 85
e 15 86
e 15 87
e 15 89
e 15 91
e 15 92
e 15 93
e 15 94
e 15 95
e 15 97
e 15 98
e 16 17
e 16 18
e 16 19
e 16 21
e 16 22
e 16 23
e 16 25
e 16 26
e 16 27
e 16 30
e 16 31
e 16 32
e 16 35
e 16 36
e 16 37
e 16 38
e 16 39
e 16 40
e 16 41
e 16 42
e 16 43
e 16 49
e 16 50
e 16 51
e 16 52
e 16 55
e 16 57
e 16 58
e 16 59
e 16 64
e 16 69
e 16 71
e 16 72
e 16 73
e 16 74
e 16 77
e 16 78
e 16 79
e 16 85
e 16 86
e 16 90
e 16 92
e 16 93
e 16 97
e 17 19
e 17 21
e 17 25
e 17 26
e 17 27
e 17 30
e 17 33
e 17 35
e 17 36
e 17 41
e 17 42
e 17 44
e 17 45
e 17 46
e 17 47
e 17 48
e 17 49
e 17 50
e 17 51
e 17 53
e 17 55
e 17 56
e 17 57
e 17 61
e 17 62
e 17 65
e 17 66
e 17 68
e 17 69
e 17 70
e 17 72
e 17 73
e 17 75
e 17 76
e 17 78
e 17 80
e 17 84
e 17 91
e 17 93
e 17 94
e 17 95
e 17 98
e 17 99
e 18 20
e 18 22
e 18 23
e 18 24
e 18 25
e 18 26
e 18 27
e 18 28
e 18 29
e 18 30
e 18 31
e 18 32
e 18 35
e 18 36
e 18 37
e 18 38
e 18 42
e 18 44
e 18 46
e 18 47
e 18 48
e 18 52
e 18 53
e 18 56
e 18 57
e 18 58
e 18 61
e 18 63
e 18 64
e 18 66
e 18 72
e 18 73
e 18 77
e 18 78
e 18 79
e 18 81
e 18 82
e 18 86
e 18 88
e 18 89
e 18 92
e 18 96
e 18 99
e 19 29
e 19 31
e 19 33
e 19 34
e 19 35
e 19 36
e 19 37
e 19 38
e 19 39
e 19 40
e 19 42
e 19 44
e 19 45
e 19 46
e 19 47
e 19 51
e 19 55
e 19 57
e 19 58
e 19 59
e 19 60
e 19 61
e 19 65
e 19 67
e 19 68
e 19 69
e 19 70
e 19 71
e 19 73
e 19 83
e 19 87
e 19 89
e 19 91
e 19 93
e 19 94
e 19 97
e 19 98
e 20 21
e 20 29
e 20 30
e 20 31
e 20 32
e 20 35
e 20 36
e 20 40
e 20 45
e 20 47
e 20 49
e 20 50
e 20 51
e 20 52
e 20 53
e 20 54
e 20 55
e 20 56
e 20 57
e 20 59
e 20 63
e 20 64
e 20 66
e 20 67
e 20 68
e 20 69
e 20 71
e 20 72
e 20 73
e 20 75
e 20 76
e 20 78
e 20 79
e 20 81
e 20 85
e 20 86
e 20 87
e 20 88
e 20 89
e 20 92
e 20 94
e 20 96
e 20 97
e 21 23
e 21 24
e 21 25
e 21 28
e 21 31
e 21 32
e 21 33
e 21 34
e 21 38
e 21 42
e 21 47
e 21 49
e 21 50
e 21 51
e 21 52
e 21 53
e 21 55
e 21 57
e 21 59
e 21 60
e 21 61
e 21 62
e 21 65
e 21 68
e 21 69
e 21 71
e 21 73
e 21 74
e 21 75
e 21 76
e 21 78
e 21 82
e 21 83
e 21 85
e 21 86
e 21 87
e 21 89
e 21 90
e 21 91
e 21 92
e 21 93
e 21 95
e 21 97
e 21 98
e 21 99
e 22 23
e 22 24
e 22 25
e 22 26
e 22 27
e 22 28
e 22 31
e 22 35
e 22 38
e 22 39
e 22 40
e 22 41
e 22 43
e 22 48
e 22 51
e 22 52
e 22 53
e 22 54
e 22 57
e 22 58
e 22 59
e 22 61
e 22 62
e 22 66
e 22 68
e 22 70
e 22 71
e 22 73
e 22 74
e 22 76
e 22 82
e 22 83
e 22 87
e 22 88
e 22 89
e 22 90
e 22 93
e 22 95
e 22 99
e 23 24
e 23 25
e 23 27
e 23 28
e 23 29
e 23 30
e 23 32
e 23 33
e 23 37
e 23 43
e 23 45
e 23 46
e 23 49
e 23 50
e 23 51
e 23 52
e 23 54
e 23 55
e 23 57
e 23 61
e 23 63
e 23 64
e 23 65
e 23 66
e 23 68
e 23 69
e 23 70
e 23 71
e 23 72
e 23 73
e 23 77
e 23 78
e 23 82
e 23 83
e 23 86
e 23 89
e 23 90
e 23 91
e 23 92
e 23 94
e 23 98
e 23 99
e 24 29
e 24 36
e 24 37
e 24 41
e 24 44
e 24 47
e 24 48
e 24 50
e 24 51
e 24 52
e 24 56
e 24 57
e 24 61
e 24 64
e 24 69
e 24 72
e 24 75
e 24 76
e 24 78
e 24 80
e 24 84
e 24 87
e 24 88
e 24 90
e 24 91
e 24 93
e 24 95
e 24 96
e 24 97
e 24 99
e 25 26
e 25 27
e 25 28
e 25 29
e 25 33
e 25 34
e 25 36
e 25 38
e 25 40
e 25 41
e 25 42
e 25 46
e 25 48
e 25 49
e 25 50
e 25 51
e 25 61
e 25 65
e 25 66
e 25 68
e 25 69
e 25 72
e 25 73
e 25 79
e 25 80
e 25 82
e 25 83
e 25 84
e 25 87
e 25 88
e 25 91
e 25 94
e 25 95
e 26 27
e 26 28
e 26 31
e 26 32
e 26 33
e 26 34
e 26 36
e 26 37
e 26 39
e 26 40
e 26 46
e 26 47
e 26 48
e 26 51
e 26 55
e 26 57
e 26 58
e 26 59
e 26 60
e 26 62
e 26 63
e 26 64
e 26 65
e 26 66
e 26 68
e 26 75
e 26 76
e 26 80
e 26 81
e 26 82
e 26 83
e 26 85
e 26 87
e 26 88
e 26 90
e 26 91
e 26 92
e 26 94
e 26 96
e 26 97
e 26 98
e 26 99
e 27 28
e 27 30
e 27 31
e 27 33
e 27 41
e 27 42
e 27 43
e 27 44
e 27 45
e 27 48
e 27 50
e 27 52
e 27 53
e 27 54
e 27 56
e 27 57
e 27 64
e 27 65
e 27 66
e 27 67
e 27 71
e 27 72
e 27 75
e 27 76
e 27 77
e 27 79
e 27 80
e 27 81
e 27 82
e 27 83
e 27 84
e 27 92
e 27 95
e 27 96
e 27 97
e 27 98
e 27 99
e 28 29
e 28 32
e 28 33
e 28 34
e 28 35
e 28 38
e 28 39
e 28 42
e 28 44
e 28 45
e 28 49
e 28 51
e 28 52
e 28 58
e 28 59
e 28 60
e 28 61
e 28 64
e 28 65
e 28 66
e 28 67
e 28 69
e 28 71
e 28 73
e 28 74
e 28 75
e 28 76
e 28 80
e 28 81
e 28 83
e 28 86
e 28 92
e 28 94
e 28 99
e 29 34
e 29 35
e 29 36
e 29 38
e 29 39
e 29 40
e 29 41
e 29 42
e 29 44
e 29 48
e 29 49
e 29 54
e 29 56
e 29 57
e 29 59
e 29 60
e 29 61
e 29 62
e 29 63
e 29 68
e 29 69
e 29 70
e 29 72
e 29 77
e 29 78
e 29 81
e 29 82
e 29 83
e 29 87
e 29 88
e 29 89
e 29 90
e 29 93
e 29 95
e 29 96
e 29 99
e 30 32
e 30 35
e 30 37
e 30 39
e 30 40
e 30 42
e 30 43
e 30 45
e 30 47
e 30 48
e 30 50
e 30 53
e 30 54
e 30 55
e 30 59
e 30 61
e 30 62
e 30 63
e 30 64
e 30 65
e 30 66
e 30 69
e 30 70
e 30 71
e 30 73
e 30 74
e 30 75
e 30 77
e 30 78
e 30 81
e 30 82
e 30 85
e 30 86
e 30 92
e 30 93
e 30 96
e 30 97
e 30 99
e 31 32
e 31 33
e 31 34
e 31 35
e 31 36
e 31 37
e 31 38
e 31 40
e 31 43
e 31 46
e 31 47
e 31 48
e 31 50
e 31 51
e 31 56
e 31 57
e 31 60
e 31 62
e 31 63
e 31 64
e 31 66
e 31 67
e 31 69
e 31 70
e 31 71
e 31 72
e 31 76
e 31 78
e 31 79
e 31 80
e 31 82
e 31 83
e 31 84
e 31 85
e 31 88
e 31 91
e 31 92
e 31 93
e 31 94
e 31 95
e 31 96
e 31 97
e 31 98
e 31 99
e 32 38
e 32 39
e 32 40
e 32 43
e 32 44
e 32 45
e 32 46
e 32 47
e 32 49
e 32 50
e 32 52
e 32 54
e 32 55
e 32 56
e 32 58
e 32 59
e 32 60
e 32 61
e 32 64
e 32 65
e 32 66
e 32 68
e 32 71
e 32 72
e 32 76
e 32 80
e 32 81
e 32 82
e 32 86
e 32 87
e 32 89
e 32 92
e 32 93
e 32 94
e 32 96
e 33 36
e 33 37
e 33 41
e 33 42
e 33 44
e 33 46
e 33 48
e 33 51
e 33 52
e 33 53
e 33 54
e 33 57
e 33 59
e 33 60
e 33 62
e 33 63
e 33 64
e 33 65
e 33 66
e 33 68
e 33 72
e 33 74
e 33 75
e 33 77
e 33 79
e 33 84
e 33 86
e 33 87
e 33 88
e 33 89
e 33 91
e 33 93
e 33 94
e 33 95
e 33 97
e 33 98
e 34 35
e 34 36
e 34 37
e 34 39
e 34 40
e 34 41
e 34 42
e 34 43
e 34 47
e 34 48
e 34 50
e 34 51
e 34 53
e 34 55
e 34 56
e 34 59
e 34 63
e 34 64
e 34 69
e 34 74
e 34 76
e 34 77
e 34 79
e 34 80
e 34 81
e 34 82
e 34 83
e 34 84
e 34 85
e 34 87
e 34 88
e 34 89
e 34 92
e 34 94
e 34 96
e 34 97
e 34 98
e 34 99
e 35 39
e 35 41
e 35 43
e 35 45
e 35 47
e 35 48
e 35 51
e 35 55
e 35 58
e 35 59
e 35 63
e 35 66
e 35 67
e 35 68
e 35 70
e 35 73
e 35 76
e 35 81
e 35 83
e 35 84
e 35 85
e 35 89
e 35 90
e 35 91
e 35 92
e 35 94
e 35 98
e 36 37
e 36 40
e 36 45
e 36 51
e 36 56
e 36 57
e 36 61
e 36 62
e 36 64
e 36 65
e 36 66
e 36 67
e 36 68
e 36 70
e 36 72
e 36 76
e 36 77
e 36 80
e 36 82
e 36 83
e 36 85
e 36 86
e 36 90
e 36 93
e 36 94
e 36 95
e 36 96
e 36 97
e 36 98
e 36 99
e 37 38
e 37 39
e 37 41
e 37 42
e 37 47
e 37 48
e 37 49
e 37 50
e 37 51
e 37 54
e 37 55
e 37 57
e 37 59
e 37 60
e 37 61
e 37 70
e 37 73
e 37 74
e 37 80
e 37 82
e 37 85
e 37 86
e 37 87
e 37 88
e 37 90
e 37 96
e 37 97
e 37 98
e 38 39
e 38 43
e 38 44
e 38 45
e 38 47
e 38 48
e 38 50
e 38 51
e 38 52
e 38 53
e 38 54
e 38 57
e 38 58
e 38 59
e 38 60
e 38 64
e 38 65
e 38 70
e 38 71
e 38 73
e 38 74
e 38 76
e 38 77
e 38 79
e 38 89
e 38 91
e 38 92
e 38 93
e 38 96
e 38 97
e 39 40
e 39 43
e 39 45
e 39 47
e 39 48
e 39 51
e 39 52
e 39 53
e 39 55
e 39 56
e 39 60
e 39 61
e 39 63
e 39 64
e 39 65
e 39 66
e 39 68
e 39 69
e 39 70
e 39 73
e 39 78
e 39 79
e 39 80
e 39 85
e 39 86
e 39 88
e 39 90
e 39 92
e 39 93
e 39 94
e 39 98
e 40 41
e 40 44
e 40 45
e 40 52
e 40 53
e 40 54
e 40 55
e 40 56
e 40 58
e 40 59
e 40 60
e 40 63
e 40 64
e 40 66
e 40 67
e 40 68
e 40 69
e 40 71
e 40 72
e 40 73
e 40 74
e 40 76
e 40 79
e 40 81
e 40 82
e 40 83
e 40 84
e 40 85
e 40 90
e 40 93
e 40 94
e 40 95
e 40 96
e 40 97
e 40 99
e 41 42
e 41 43
e 41 47
e 41 48
e 41 49
e 41 50
e 41 54
e 41 60
e 41 61
e 41 62
e 41 64
e 41 66
e 41 68
e 41 69
e 41 70
e 41 71
e 41 72
e 41 75
e 41 76
e 41 77
e 41 78
e 41 79
e 41 80
e 41 82
e 41 85
e 41 87
e 41 89
e 41 90
e 41 93
e 41 94
e 41 97
e 42 43
e 42 44
e 42 47
e 42 49
e 42 50
e 42 52
e 42 53
e 42 54
e 42 58
e 42 59
e 42 60
e 42 65
e 42 69
e 42 70
e 42 71
e 42 72
e 42 75
e 42 76
e 42 78
e 42 79
e 42 81
e 42 83
e 42 86
e 42 87
e 42 88
e 42 89
e 42 91
e 42 93
e 42 94
e 42 95
e 42 98
e 43 47
e 43 48
e 43 49
e 43 54
e 43 55
e 43 56
e 43 57
e 43 60
e 43 62
e 43 64
e 43 66
e 43 67
e 43 69
e 43 70
e 43 72
e 43 77
e 43 79
e 43 81
e 43 84
e 43 85
e 43 88
e 43 89
e 43 90
e 43 92
e 43 94
e 43 98
e 43 99
e 44 46
e 44 48
e 44 49
e 44 54
e 44 58
e 44 59
e 44 61
e 44 62
e 44 64
e 44 65
e 44 70
e 44 73
e 44 75
e 44 79
e 44 81
e 44 82
e 44 88
e 44 90
e 44 91
e 44 92
e 44 93
e 44 94
e 44 95
e 44 98
e 45 49
e 45 50
e 45 53
e 45 54
e 45 56
e 45 58
e 45 59
e 45 62
e 45 64
e 45 65
e 45 66
e 45 70
e 45 71
e 45 72
e 45 73
e 45 74
e 45 76
e 45 77
e 45 78
e 45 79
e 45 82
e 45 83
e 45 85
e 45 88
e 45 90
e 45 92
e 45 93
e 45 94
e 45 95
e 45 99
e 46 48
e 46 49
e 46 51
e 46 52
e 46 53
e 46 55
e 46 56
e 46 57
e 46 59
e 46 60
e 46 62
e 46 63
e 46 66
e 46 68
e 46 69
e 46 73
e 46 78
e 46 80
e 46 82
e 46 83
e 46 85
e 46 86
e 46 88
e 46 90
e 46 91
e 46 93
e 46 96
e 46 99
e 47 49
e 47 50
e 47 51
e 47 52
e 47 53
e 47 54
e 47 55
e 47 57
e 47 63
e 47 65
e 47 77
e 47 78
e 47 80
e 47 81
e 47 82
e 47 84
e 47 85
e 47 86
e 47 88
e 47 89
e 47 90
e 47 92
e 47 93
e 47 95
e 47 98
e 47 99
e 48 49
e 48 51
e 48 52
e 48 53
e 48 54
e 48 59
e 48 60
e 48 65
e 48 66
e 48 69
e 48 70
e 48 74
e 48 75
e 48 76
e 48 81
e 48 82
e 48 83
e 48 86
e 48 87
e 48 88
e 48 89
e 48 90
e 48 92
e 48 93
e 48 96
e 48 99
e 49 53
e 49 56
e 49 58
e 49 59
e 49 60
e 49 62
e 49 65
e 49 66
e 49 70
e 49 72
e 49 73
e 49 74
e 49 77
e 49 79
e 49 88
e 49 89
e 49 90
e 49 92
e 49 98
e 50 52
e 50 54
e 50 55
e 50 56
e 50 60
e 50 63
e 50 65
e 50 66
e 50 67
e 50 73
e 50 74
e 50 76
e 50 77
e 50 79
e 50 80
e 50 82
e 50 83
e 50 87
e 50 89
e 50 90
e 50 91
e 50 92
e 50 93
e 50 96
e 50 99
e 51 52
e 51 54
e 51 55
e 51 56
e 51 59
e 51 60
e 51 61
e 51 62
e 51 64
e 51 66
e 51 70
e 51 71
e 51 72
e 51 73
e 51 76
e 51 78
e 51 83
e 51 85
e 51 87
e 51 89
e 51 90
e 51 96
e 51 97
e 52 54
e 52 62
e 52 65
e 52 66
e 52 69
e 52 70
e 52 73
e 52 74
e 52 76
e 52 77
e 52 79
e 52 82
e 52 84
e 52 87
e 52 88
e 52 92
e 52 93
e 52 96
e 52 99
e 53 55
e 53 56
e 53 59
e 53 61
e 53 63
e 53 65
e 53 67
e 53 70
e 53 72
e 53 77
e 53 80
e 53 81
e 53 86
e 53 90
e 53 91
e 53 93
e 53 94
e 53 95
e 53 97
e 54 55
e 54 56
e 54 57
e 54 59
e 54 61
e 54 62
e 54 63
e 54 66
e 54 67
e 54 71
e 54 72
e 54 73
e 54 74
e 54 77
e 54 78
e 54 79
e 54 80
e 54 81
e 54 82
e 54 83
e 54 84
e 54 85
e 54 86
e 54 87
e 54 90
e 54 93
e 54 97
e 55 57
e 55 59
e 55 60
e 55 62
e 55 63
e 55 65
e 55 66
e 55 67
e 55 68
e 55 69
e 55 71
e 55 74
e 55 75
e 55 77
e 55 79
e 55 80
e 55 82
e 55 83
e 55 85
e 55 87
e 55 88
e 55 89
e 55 90
e 55 92
e 55 93
e 55 96
e 55 99
e 56 57
e 56 60
e 56 62
e 56 63
e 56 66
e 56 69
e 56 70
e 56 71
e 56 73
e 56 74
e 56 77
e 56 81
e 56 85
e 56 87
e 57 58
e 57 60
e 57 62
e 57 65
e 57 66
e 57 67
e 57 70
e 57 71
e 57 73
e 57 77
e 57 81
e 57 82
e 57 83
e 57 85
e 57 86
e 57 87
e 57 89
e 57 90
e 57 91
e 57 93
e 57 96
e 57 98
e 57 99
e 58 59
e 58 64
e 58 65
e 58 66
e 58 70
e 58 71
e 58 72
e 58 75
e 58 77
e 58 82
e 58 87
e 58 90
e 58 91
e 58 94
e 58 95
e 58 96
e 58 97
e 59 60
e 59 62
e 59 67
e 59 68
e 59 71
e 59 72
e 59 73
e 59 75
e 59 76
e 59 77
e 59 81
e 59 83
e 59 85
e 59 87
e 59 88
e 59 90
e 59 91
e 59 92
e 59 93
e 59 97
e 60 61
e 60 62
e 60 63
e 60 67
e 60 68
e 60 71
e 60 72
e 60 74
e 60 76
e 60 77
e 60 78
e 60 79
e 60 81
e 60 82
e 60 83
e 60 84
e 60 85
e 60 89
e 60 92
e 60 93
e 60 98
e 61 64
e 61 65
e 61 66
e 61 67
e 61 68
e 61 73
e 61 74
e 61 76
e 61 77
e 61 78
e 61 87
e 61 88
e 61 90
e 61 95
e 61 96
e 62 64
e 62 65
e 62 67
e 62 68
e 62 73
e 62 74
e 62 75
e 62 76
e 62 78
e 62 79
e 62 81
e 62 83
e 62 84
e 62 86
e 62 88
e 62 91
e 62 92
e 62 94
e 62 96
e 62 97
e 62 98
e 63 69
e 63 71
e 63 73
e 63 74
e 63 78
e 63 79
e 63 80
e 63 87
e 63 90
e 63 91
e 63 92
e 63 98
e 63 99
e 64 66
e 64 67
e 64 68
e 64 69
e 64 73
e 64 74
e 64 75
e 64 76
e 64 77
e 64 80
e 64 83
e 64 85
e 64 92
e 64 94
e 64 95
e 64 96
e 64 97
e 65 72
e 65 75
e 65 76
e 65 78
e 65 80
e 65 83
e 65 85
e 65 87
e 65 88
e 65 92
e 65 93
e 65 95
e 65 98
e 66 68
e 66 70
e 66 71
e 66 72
e 66 73
e 66 74
e 66 80
e 66 83
e 66 86
e 66 87
e 66 88
e 66 90
e 66 91
e 66 92
e 66 93
e 66 94
e 66 95
e 66 97
e 66 98
e 66 99
e 67 70
e 67 75
e 67 79
e 67 80
e 67 81
e 67 82
e 67 84
e 67 85
e 67 86
e 67 90
e 67 91
e 67 92
e 67 95
e 68 71
e 68 73
e 68 77
e 68 79
e 68 87
e 68 88
e 68 89
e 68 90
e 68 92
e 68 95
e 68 99
e 69 71
e 69 72
e 69 74
e 69 77
e 69 79
e 69 80
e 69 83
e 69 84
e 69 85
e 69 86
e 69 88
e 69 89
e 69 90
e 69 91
e 69 95
e 70 73
e 70 78
e 70 80
e 70 81
e 70 82
e 70 83
e 70 86
e 70 92
e 70 97
e 71 72
e 71 74
e 71 76
e 71 88
e 71 91
e 71 94
e 72 73
e 72 74
e 72 76
e 72 77
e 72 78
e 72 79
e 72 81
e 72 82
e 72 84
e 72 86
e 72 87
e 72 88
e 72 89
e 72 92
e 72 93
e 72 96
e 72 97
e 73 75
e 73 76
e 73 77
e 73 78
e 73 79
e 73 81
e 73 85
e 73 86
e 73 88
e 73 89
e 73 90
e 73 93
e 73 94
e 73 96
e 73 97
e 73 98
e 74 76
e 74 77
e 74 78
e 74 88
e 74 91
e 74 95
e 74 97
e 74 99
e 75 76
e 75 77
e 75 78
e 75 80
e 75 86
e 75 87
e 75 88
e 75 89
e 75 90
e 75 91
e 75 92
e 75 93
e 75 94
e 75 96
e 76 81
e 76 82
e 76 83
e 76 87
e 76 88
e 76 90
e 76 92
e 76 94
e 76 95
e 76 99
e 77 81
e 77 89
e 77 90
e 77 92
e 77 93
e 77 96
e 77 98
e 78 80
e 78 81
e 78 82
e 78 84
e 78 85
e 78 86
e 78 88
e 78 90
e 78 92
e 78 96
e 79 80
e 79 81
e 79 82
e 79 83
e 79 84
e 79 85
e 79 86
e 79 87
e 79 88
e 79 91
e 79 93
e 80 81
e 80 83
e 80 85
e 80 89
e 80 90
e 80 92
e 80 93
e 80 95
e 80 96
e 80 98
e 81 82
e 81 83
e 81 84
e 81 86
e 81 87
e 81 88
e 81 90
e 81 93
e 81 94
e 81 95
e 81 96
e 81 98
e 81 99
e 82 83
e 82 84
e 82 88
e 82 89
e 82 90
e 82 92
e 82 93
e 83 84
e 83 86
e 83 87
e 83 88
e 83 90
e 83 92
e 83 93
e 83 94
e 83 97
e 83 98
e 84 88
e 84 89
e 84 91
e 84 92
e 84 94
e 84 95
e 85 86
e 85 91
e 85 92
e 85 95
e 85 96
e 85 97
e 85 98
e 85 99
e 86 87
e 86 88
e 86 89
e 86 90
e 86 91
e 86 93
e 86 94
e 86 96
e 86 97
e 87 88
e 87 91
e 87 92
e 87 96
e 87 99
e 88 89
e 88 91
e 88 92
e 88 96
e 88 97
e 88 99
e 89 91
e 89 92
e 89 94
e 89 95
e 89 98
e 90 91
e 90 93
e 90 96
e 91 93
e 91 94
e 91 97
e 92 93
e 92 96
e 92 97
e 93 95
e 93 97
e 93 99
e 94 95
e 94 97
e 94 98
e 95 97
e 95 99
e 96 99
e 97 98
e 98 99
